c --- [ banner ] -------------------------------------------------------------
c 
c CaDiCaL Radically Simplified CDCL SAT Solver
c Copyright (c) 2016-2021 A. Biere, M. Fleury, N. Froleyks
c 
c Version 1.5.2 a5f15211db36c3956764e18194dd5bd63bf3b5e6
c g++ (GCC) 9.3.0 -Wall -Wextra -O3 -DNDEBUG
c Fri Oct 21 01:27:37 EDT 2022 Linux gra-login3 3.10.0-1160.66.1.el7.x86_64 x86_64
c 
c --- [ limit ] --------------------------------------------------------------
c 
c setting conflict limit to 200000 conflicts (due to '200000')
c 
c --- [ parsing input ] ------------------------------------------------------
c 
c reading DIMACS file from '33.cubes5010.adj'
c opening file to read '33.cubes5010.adj'
c found 'p cnf 6160 1595480' header
c parsed 1595480 clauses in 19.59 seconds process time
c closing file '33.cubes5010.adj'
c after reading 1457566812 bytes 1390.0 MB
c 
c --- [ options ] ------------------------------------------------------------
c 
c all options are set to their default value
c 
c --- [ solving ] ------------------------------------------------------------
c 
c time measured in process time since initialization
c 
c  seconds    reductions  redundant   irredundant
c          MB     restarts       trail       variables
c            level   conflicts       glue         remaining
c 
c * 19.59 1382  0 0   0    0    0  0% 0 1595422 2332 38%
c { 20.83 1435  0 0   0    0    0  0% 0 1595422 2332 38%
c i 21.53 1455 738 0   0   63   42 28% 2 1595422 2319 38%
c - 28.47 1399 151 1  58  300  136 22% 6 274279 2319 38%
c i 28.88 1400 117 1  59  402  154 21% 7 274279 2316 38%
c i 28.93 1400 116 1  61  416  164 21% 8 274279 2314 38%
c i 29.27 1400 114 1  71  456  190 22% 11 274279 2313 38%
c i 29.59 1400 112 1  76  484  211 22% 13 274279 2312 38%
c i 30.05 1401 93 1  92  606  249 22% 12 274279 2295 37%
c i 30.05 1401 93 1  92  607  249 22% 12 274279 2284 37%
c i 30.16 1401 92 1  92  615  252 22% 12 274279 2283 37%
c i 30.16 1401 92 1  92  616  252 22% 12 274279 2282 37%
c i 30.35 1401 93 1  94  632  266 22% 14 274279 2281 37%
c i 30.43 1401 94 1  96  637  270 22% 14 274279 2280 37%
c i 30.64 1401 98 1 100  663  289 22% 16 274279 2279 37%
c i 31.04 1401 96 1 112  704  325 22% 16 274279 2278 37%
c i 31.35 1401 96 1 122  742  359 22% 17 274279 2277 37%
c i 31.56 1402 96 1 130  772  382 23% 18 274279 2276 37%
c i 32.09 1402 95 1 148  843  434 23% 20 274279 2275 37%
c i 33.50 1402 91 1 176  965  536 23% 21 274279 2274 37%
c 
c  seconds    reductions  redundant   irredundant
c          MB     restarts       trail       variables
c            level   conflicts       glue         remaining
c 
c i 33.77 1402 90 1 184  993  561 24% 22 274279 2273 37%
c } 33.81 1402 90 1 186 1002  570 24% 22 274279 2273 37%
c [ 33.81 1402  0 1 186 1002  570  0% 0 274279 2273 37%
c O 33.81 1402  6 1 186 1003  571 15% 6 274279 2273 37%
c i 33.95 1402 19 1 186 1043  600 29% 15 274279 2272 37%
c i 33.95 1402 19 1 186 1044  600 29% 14 274279 2271 37%
c i 33.97 1402 19 1 186 1057  610 30% 15 274279 2270 37%
c i 34.03 1402 20 1 186 1145  688 32% 16 274279 2269 37%
c - 34.57 1475 20 2 186 1162  670 32% 17 273485 2269 37%
c i 34.59 1475 20 2 186 1164  671 32% 16 273485 2268 37%
c i 34.65 1475 20 2 186 1186  688 32% 16 273485 2267 37%
c i 34.65 1475 20 2 186 1187  688 32% 16 273485 2266 37%
c i 34.68 1475 19 2 186 1241  725 32% 16 273485 2265 37%
c i 34.77 1475 19 2 186 1340  794 32% 16 273485 2264 37%
c i 34.90 1475 22 2 186 1541  956 32% 18 273485 2263 37%
c i 35.00 1475 25 2 186 1701 1072 32% 20 273485 2262 37%
c i 35.22 1475 27 2 187 2050 1333 31% 22 273485 2261 37%
c - 35.78 1474 27 3 187 2455 1312 31% 22 273461 2261 37%
c i 36.14 1474 26 3 187 2618 1417 50% 22 273461 2260 37%
c i 36.16 1474 26 3 187 2627 1423 50% 22 273461 2259 37%
c 
c  seconds    reductions  redundant   irredundant
c          MB     restarts       trail       variables
c            level   conflicts       glue         remaining
c 
c ] 36.34 1474 26 3 187 3004 1650 49% 22 273461 2259 37%
c { 36.34 1474 90 3 187 3004 1650 64% 22 273461 2259 37%
c F 36.36 1474 90 3 188 3005 1651 64% 22 273461 2259 37%
c i 37.20 1474 88 3 207 3090 1725 62% 24 273461 2258 37%
c i 37.55 1474 88 3 218 3136 1769 61% 24 273461 2257 37%
c i 37.59 1474 88 3 219 3140 1772 61% 24 273461 2256 37%
c i 40.85 1474 86 3 308 3643 2200 55% 28 273461 2255 37%
c i 42.52 1474 83 3 374 4068 2578 53% 31 273461 2254 37%
c - 43.64 1472 82 4 394 4179 1945 53% 32 273441 2254 37%
c i 44.26 1472 82 4 406 4233 1992 53% 32 273441 2253 37%
c i 44.58 1472 79 4 406 4360 2094 53% 31 273441 2252 37%
c i 44.82 1472 76 4 406 4523 2223 52% 31 273441 2251 37%
c i 46.63 1472 74 4 453 4907 2568 52% 32 273441 2250 37%
c 2 47.18 1472 73 4 454 5001 3431 51% 32 273414 2246 36%
c p 51.46 1472 73 4 454 5001 5417 51% 32 273414 2225 36%
c d 51.76 1472 73 4 454 5001 5403 51% 32 273350 2224 36%
c # 53.03 1472 62 4 469 6006 6155 51% 30 273350 2224 36%
c - 55.27 1367 65 5 517 6335 2728 50% 31 273350 2224 36%
c } 56.84 1367 64 5 570 7004 3289 50% 31 273350 2224 36%
c [ 56.84 1367 26 5 570 7004 3289 49% 22 273350 2224 36%
c 
c  seconds    reductions  redundant   irredundant
c          MB     restarts       trail       variables
c            level   conflicts       glue         remaining
c 
c - 57.64 1367 27 6 571 8921 3261 50% 23 273350 2224 36%
c I 58.17 1367 26 6 572 10009 4066 50% 23 273350 2224 36%
c - 61.54 1367 29 7 574 11940 3728 50% 24 273350 2224 36%
c p 65.63 1366 31 7 575 15001 8910 51% 27 273350 2224 36%
c ] 65.80 1366 31 7 575 15005 8914 51% 27 273350 2224 36%
c { 65.80 1366 64 7 575 15005 8914 50% 31 273350 2224 36%
c B 65.84 1367 64 7 575 15010 8919 50% 31 273350 2224 36%
c - 66.92 1366 62 8 589 15388 4313 50% 30 273350 2224 36%
c s 68.60 1367 48 8 596 18840 6789 49% 26 270728 2224 36%
c v 71.90 1367 48 8 596 18840 6789 49% 26 270710 2224 36%
c t 72.01 1367 48 8 596 18840 6787 49% 26 270697 2224 36%
c e 73.03 1368 48 8 596 18840 6487 49% 26 268724 1086 18%
c s 73.14 1368 48 8 596 18840 6487 49% 26 268516 1086 18%
c - 74.82 1368 47 9 596 19267 4809 66% 26 268516 1086 18%
c W 75.64 1368 42 9 600 21011 5869 66% 24 268516 1086 18%
c - 76.97 1368 39 10 619 23553 5030 65% 23 268516 1086 18%
c } 77.13 1368 38 10 619 24139 5462 65% 23 268516 1086 18%
c 1 77.13 1368 38 10 619 24139 5462 65% 23 268516 1086 18%
c 
c --- [ writing output ] -----------------------------------------------------
c 
c writing simplified CNF to DIMACS file 'simp/33.cubes5010.adj.simp1'
c * 77.13 1368 38 10 619 24139 5462 65% 23 268516 1086 18%
c opening file to write 'simp/33.cubes5010.adj.simp1'
c writing 'p cnf 6160 268516' header
c closing file 'simp/33.cubes5010.adj.simp1'
c after writing 118600715 bytes 113.1 MB
c wrote 268516 clauses in 0.94 seconds process time
c 
c --- [ writing extension ] --------------------------------------------------
c 
c writing extension stack to 'simp/33.cubes5010.adj.ext1'
c opening file to write 'simp/33.cubes5010.adj.ext1'
c closing file 'simp/33.cubes5010.adj.ext1'
c after writing 75769 bytes 0.1 MB
c wrote 3436 witnesses in 0.00 seconds process time
c 
c --- [ result ] -------------------------------------------------------------
c 
s SATISFIABLE
c 
c --- [ run-time profiling ] -------------------------------------------------
c 
c process time taken by individual solving procedures
c (percentage relative to process time for solving)
c 
c        45.27   78.68% search
c        34.07   59.21% unstable
c        19.59   34.05% parse
c        12.27   21.32% simplify
c         9.76   16.96% stable
c         5.92   10.30% probe
c         3.38    5.87% vivify
c         1.90    3.31% elim
c         1.24    2.16% lucky
c         0.22    0.38% subsume
c         0.20    0.35% walk
c         0.08    0.15% ternary
c   =================================
c        57.54   73.70% solve
c 
c last line shows process time for solving
c (percentage relative to total process time)
c 
c --- [ statistics ] ---------------------------------------------------------
c 
c chronological:              4886        20.24 %  of conflicts
c conflicts:                 24139       419.54    per second
c decisions:                 77182      1341.44    per second
c eliminated:                 1138        18.47 %  of all variables
c fixed:                       787        12.78 %  of all variables
c learned:                   23600        97.77 %  per conflict
c learned_lits:            4388379       100.00 %  learned literals
c minimized:                     0         0.00 %  learned literals
c shrunken:                2658763        60.59 %  learned literals
c minishrunken:             341825         7.79 %  learned literals
c propagations:            3214222         0.06 M  per second
c reduced:                   11618        48.13 %  per conflict
c rephased:                      6      4023.17    interval
c restarts:                    619        39.00    interval
c stabilizing:                   2        41.44 %  of conflicts
c substituted:                   5         0.08 %  of all variables
c subsumed:                   9047         0.27 %  of all clauses
c strengthened:               5982         0.18 %  of all clauses
c ternary:                    1726         0.56 %  of resolved
c vivified:                     28         0.00 %  of all clauses
c walked:                        1     24139.00    interval
c weakened:                   2649         3.00    average size
c 
c seconds are measured in process time for solving
c 
c --- [ resources ] ----------------------------------------------------------
c 
c total process time since initialization:        78.07    seconds
c total real time since initialization:           79.72    seconds
c maximum resident set size of process:         1583.15    MB
c 
c --- [ shutting down ] ------------------------------------------------------
c 
c exit 10
WARNING! DIMACS header mismatch: wrong number of variables.
============================[ Problem Statistics ]=============================
|                                                                             |
|  Number of variables:          3763                                         |
|  Number of clauses:          268516                                         |
|  Parse time:                   1.58 s                                       |
|  Simplification time:          0.03 s                                       |
|                                                                             |
============================[ Search Statistics ]====================================================
| Conflicts |          ORIGINAL         |          LEARNT          | Num Sols |      SUBGRAPHS      |
|           |    Vars  Clauses Literals |    Limit  Clauses Lit/Cl |          | Canonical Noncanon. |
=====================================================================================================
|       110 |    3672   268526 25993006 |     2000      110    107 |        0 |        17        10 |
|       264 |    3672   268530 25993081 |     2000      264    108 |        0 |        25        14 |
|       490 |    3672   268531 25993099 |     2000      490    118 |        0 |        32        15 |
|       833 |    3672   268537 25993300 |     2000      833    107 |        0 |        54        21 |
|      1599 |    3672   268797 25997566 |     2000     1599     94 |        0 |        75       281 |
|      2835 |    3672   269274 26006794 |     3601     1836     50 |        0 |       182       758 |
|      4043 |    3672   269343 26008569 |     3601     3044     83 |        0 |       213       827 |
|      5800 |    3672   269392 26009783 |     5002     3002     60 |        0 |       231       876 |
|      8682 |    3672   269712 26016675 |     6304     3386     45 |        0 |       307      1196 |
|     12749 |    3672   269935 26022188 |     7554     4303     49 |        0 |       414      1419 |
|     18917 |    3672   270337 26028084 |     8779     6696     53 |        0 |       556      1821 |
|     28275 |    3672   271046 26038959 |    11197     6672     43 |        0 |       780      2530 |
|     41530 |    3672   271327 26043694 |    13611     8141     52 |        0 |       834      2811 |
|     61742 |    3672   272078 26057646 |    16002    14144     71 |        0 |      1104      3562 |
|     91680 |    3672   272824 26072058 |    19603    18283     72 |        0 |      1317      4308 |
|    136616 |    3672   273971 26091990 |    24407    20423     66 |        0 |      1491      5455 |
|    203399 |    3672   275070 26113771 |    30410    20209     58 |        0 |      1826      6554 |
|    302142 |    3672   275287 26120481 |    37612    18754     49 |        0 |      2141      6771 |
|    450415 |    3672   275771 26132897 |    46017    22832     54 |        0 |      2366      7255 |
|    672380 |    3672   276053 26143124 |    55614    43994     84 |        0 |      2611      7537 |
|   1006273 |    3672   277421 26183388 |    68817    39090     75 |        0 |      3528      8905 |
|   1507520 |    3672   279880 26252686 |    84418    46338     66 |        0 |      5155     11364 |
|   2266455 |    3672   290633 26481850 |   103611    58066     62 |        0 |      9185     22117 |
|   3392791 |    3672   294695 26594359 |   126410    97601     81 |        0 |     11628     26179 |
|   5093915 |    3672   312408 27025409 |   155214   116329     74 |        0 |     17036     43892 |
|   7639006 |    3672   332383 27438953 |   190022   167428     78 |        3 |     19561     63864 |
|  11453294 |    3672   358996 27941554 |   233221   183715     75 |        5 |     23436     90475 |
|  17167750 |    3672   391940 28791938 |   286027   200177     61 |       28 |     30602    123396 |
|  25728058 |    3672   429979 29577993 |   350842   179900     44 |       45 |     40341    161418 |
|  38566253 |    3672   484771 30925825 |   428821   369074     73 |       59 |     53254    216196 |
|  57819053 |    3646   338935 27674703 |   526005   311458     62 |       88 |     74858    293862 |
|  86630636 |    3628   359052 28181156 |   642328   495964     62 |      106 |     87909    342769 |
=====================================================================================================
Number of solutions   : 106
Canonical subgraphs   : 89450          (17 /sec)
          order  3    : 1              (200000 /sec)
          order  4    : 1              (500000 /sec)
          order  5    : 1              (250000 /sec)
          order  6    : 1              (55556 /sec)
          order  7    : 1              (8850 /sec)
          order  8    : 2              (1360 /sec)
          order  9    : 7              (353 /sec)
          order 10    : 30             (109 /sec)
          order 11    : 203            (47 /sec)
          order 12    : 1251           (16 /sec)
          order 13    : 6210           (12 /sec)
          order 14    : 35089          (17 /sec)
          order 15    : 31766          (22 /sec)
          order 16    : 8004           (27 /sec)
          order 17    : 2721           (20 /sec)
          order 18    : 852            (12 /sec)
          order 19    : 889            (11 /sec)
          order 20    : 1109           (11 /sec)
          order 21    : 1206           (10 /sec)
          order 22    : 106            (1 /sec)
Noncanonical subgraphs: 349835         (586 /sec)
          order  3    : 0              (-nan /sec)
          order  4    : 0              (-nan /sec)
          order  5    : 0              (-nan /sec)
          order  6    : 0              (-nan /sec)
          order  7    : 0              (-nan /sec)
          order  8    : 0              (-nan /sec)
          order  9    : 0              (-nan /sec)
          order 10    : 0              (-nan /sec)
          order 11    : 0              (-nan /sec)
          order 12    : 0              (-nan /sec)
          order 13    : 30250          (3213 /sec)
          order 14    : 196349         (1744 /sec)
          order 15    : 69454          (1065 /sec)
          order 16    : 47332          (202 /sec)
          order 17    : 4208           (112 /sec)
          order 18    : 1059           (63 /sec)
          order 19    : 4              (164 /sec)
          order 20    : 0              (-nan /sec)
          order 21    : 0              (-nan /sec)
Canonicity checking   : 5158.61 s
Noncanonicity checking: 597.227 s
Total canonicity time : 5755.84 s
database reductions   : 548
restarts              : 118973
conflicts             : 91123996       (1460 /sec)
decisions             : 109469068      (0.00 % random) (1754 /sec)
propagations          : 5502692900     (88154 /sec)
conflict literals     : 9955842616     (57.51 % deleted)
actual reward         : 0.203234
Memory used           : 747.00 MB
CPU time              : 62421.3 s

UNSATISFIABLE
